
Gurobi 7.5.2 (linux64) logging started Sat Jun 23 17:59:40 2018

Changed value of parameter LogFile to result/ilp/simNo_8-n_100-m_40-s_4-minVAF_0.05-cov_2000-k_2-fn_0.05-fp_0.0001-na_0.15.ILP.gurobiSolverLog
   Prev: gurobi.log  Default: 
Changed value of parameter TimeLimit to 86400.0
   Prev: 1e+100  Min: 0.0  Max: 1e+100  Default: 1e+100
Optimize a model with 1265601 rows, 330440 columns and 3489120 nonzeros
Variable types: 0 continuous, 330440 integer (330440 binary)
Coefficient statistics:
  Matrix range     [2e-03, 3e+00]
  Objective range  [1e-01, 9e+00]
  Bounds range     [1e+00, 1e+00]
  RHS range        [2e-01, 2e+00]
Found heuristic solution: objective -15948.01592
Presolve removed 327206 rows and 215973 columns (presolve time = 5s) ...
Presolve removed 343837 rows and 215973 columns (presolve time = 10s) ...
Presolve removed 344291 rows and 215973 columns (presolve time = 16s) ...
Presolve removed 344291 rows and 215973 columns (presolve time = 20s) ...
Presolve removed 344291 rows and 215973 columns (presolve time = 25s) ...
Presolve removed 344291 rows and 215973 columns (presolve time = 30s) ...
Presolve removed 344291 rows and 215973 columns (presolve time = 35s) ...
Presolve removed 344291 rows and 215973 columns (presolve time = 41s) ...
Presolve removed 344291 rows and 215973 columns (presolve time = 45s) ...
Presolve removed 344291 rows and 215973 columns (presolve time = 50s) ...
Presolve removed 344291 rows and 215973 columns (presolve time = 55s) ...
Presolve removed 344291 rows and 215973 columns (presolve time = 63s) ...
Presolve removed 344291 rows and 215973 columns (presolve time = 66s) ...
Presolve removed 344291 rows and 215973 columns
Presolve time: 66.34s
Presolved: 921310 rows, 114467 columns, 2556070 nonzeros
Variable types: 0 continuous, 114467 integer (114467 binary)
Presolve removed 0 rows and 0 columns (presolve time = 5s) ...
Presolved: 114467 rows, 1035777 columns, 2670537 nonzeros

Presolve removed 114467 rows and 1035777 columns

Root simplex log...

Iteration    Objective       Primal Inf.    Dual Inf.      Time
       0    7.3374017e+00   0.000000e+00   1.033860e+05     79s
    6019   -7.4164005e+01   0.000000e+00   5.965600e+04     80s
   10094   -1.3364467e+02   0.000000e+00   0.000000e+00     85s
   10094   -1.3364467e+02   0.000000e+00   0.000000e+00     88s

Root relaxation: objective -1.336447e+02, 10094 iterations, 16.97 seconds
Total elapsed time = 120.65s
Total elapsed time = 132.80s

    Nodes    |    Current Node    |     Objective Bounds      |     Work
 Expl Unexpl |  Obj  Depth IntInf | Incumbent    BestBd   Gap | It/Node Time

     0     0 -133.64467    0  597 -15948.016 -133.64467  99.2%     -  152s
H    0     0                    -367.3967147 -133.64467  63.6%     -  165s
H    0     0                    -238.6579899 -133.64467  44.0%     -  169s
H    0     0                    -167.0227924 -133.64467  20.0%     -  170s
     0     0 -140.79971    0  519 -167.02279 -140.79971  15.7%     -  187s
H    0     0                    -158.7776638 -140.79971  11.3%     -  201s
     0     0 -143.13489    0  609 -158.77766 -143.13489  9.85%     -  222s
     0     0 -144.21636    0  510 -158.77766 -144.21636  9.17%     -  243s
     0     0 -144.21636    0  514 -158.77766 -144.21636  9.17%     -  254s
     0     0 -144.37183    0  549 -158.77766 -144.37183  9.07%     -  268s
H    0     0                    -155.1600173 -144.37183  6.95%     -  276s
     0     0 -144.37183    0  548 -155.16002 -144.37183  6.95%     -  284s
     0     0 -144.52357    0  571 -155.16002 -144.52357  6.86%     -  305s
     0     0 -144.52375    0  573 -155.16002 -144.52375  6.86%     -  322s
     0     0 -144.91612    0  695 -155.16002 -144.91612  6.60%     -  339s
     0     0 -145.09698    0  534 -155.16002 -145.09698  6.49%     -  353s
     0     0 -145.09698    0  540 -155.16002 -145.09698  6.49%     -  362s
     0     0 -145.72342    0  677 -155.16002 -145.72342  6.08%     -  376s
     0     0 -145.73172    0  678 -155.16002 -145.73172  6.08%     -  389s
     0     0 -145.73172    0  680 -155.16002 -145.73172  6.08%     -  398s
     0     0 -146.43153    0  619 -155.16002 -146.43153  5.63%     -  415s
     0     0 -146.74793    0  615 -155.16002 -146.74793  5.42%     -  432s
     0     0 -146.74793    0  643 -155.16002 -146.74793  5.42%     -  440s
     0     0 -147.96940    0  563 -155.16002 -147.96940  4.63%     -  451s
     0     0 -148.08009    0  558 -155.16002 -148.08009  4.56%     -  466s
     0     0 -148.23069    0  529 -155.16002 -148.23069  4.47%     -  476s
     0     0 -148.23069    0  536 -155.16002 -148.23069  4.47%     -  482s
     0     0 -148.72515    0  538 -155.16002 -148.72515  4.15%     -  498s
     0     0 -148.78982    0  553 -155.16002 -148.78982  4.11%     -  513s
     0     0 -148.78982    0  554 -155.16002 -148.78982  4.11%     -  522s
     0     0 -149.05683    0  583 -155.16002 -149.05683  3.93%     -  538s
     0     0 -149.05683    0  586 -155.16002 -149.05683  3.93%     -  556s
     0     0 -149.64996    0  647 -155.16002 -149.64996  3.55%     -  571s
     0     0 -149.79825    0  583 -155.16002 -149.79825  3.46%     -  585s
     0     0 -150.71518    0  515 -155.16002 -150.71518  2.86%     -  600s
     0     0 -150.81546    0  545 -155.16002 -150.81546  2.80%     -  615s
     0     0 -150.81546    0  541 -155.16002 -150.81546  2.80%     -  624s
     0     0 -150.89784    0  551 -155.16002 -150.89784  2.75%     -  640s
     0     0 -150.96374    0  584 -155.16002 -150.96374  2.70%     -  656s
     0     0 -150.96374    0  588 -155.16002 -150.96374  2.70%     -  666s
     0     0 -151.46421    0  561 -155.16002 -151.46421  2.38%     -  684s
     0     0 -151.50404    0  624 -155.16002 -151.50404  2.36%     -  699s
     0     0 -151.52656    0  621 -155.16002 -151.52656  2.34%     -  708s
     0     0 -151.52656    0  619 -155.16002 -151.52656  2.34%     -  717s
     0     0 -152.21018    0  363 -155.16002 -152.21018  1.90%     -  758s
     0     0 -152.21018    0  270 -155.16002 -152.21018  1.90%     -  922s
     0     0 -152.21018    0  191 -155.16002 -152.21018  1.90%     -  927s
     0     0 -152.21018    0  158 -155.16002 -152.21018  1.90%     -  929s
     0     0 -152.27316    0  172 -155.16002 -152.27316  1.86%     -  930s
     0     0 -152.27316    0  186 -155.16002 -152.27316  1.86%     -  930s
     0     0 -153.36207    0  152 -155.16002 -153.36207  1.16%     -  934s
     0     0 -153.36207    0   59 -155.16002 -153.36207  1.16%     -  941s
     0     0 -153.36207    0   52 -155.16002 -153.36207  1.16%     -  942s
     0     0 -153.43992    0   78 -155.16002 -153.43992  1.11%     -  943s
     0     0 -153.66798    0   65 -155.16002 -153.66798  0.96%     -  943s
     0     0 -153.66798    0   65 -155.16002 -153.66798  0.96%     -  943s
     0     0 -153.74474    0   70 -155.16002 -153.74474  0.91%     -  944s
     0     0 -153.90186    0   61 -155.16002 -153.90186  0.81%     -  944s
     0     0 -154.00315    0   45 -155.16002 -154.00315  0.75%     -  945s
     0     0 -154.01152    0   73 -155.16002 -154.01152  0.74%     -  945s
     0     0 -154.01152    0   33 -155.16002 -154.01152  0.74%     -  948s

Explored 1 nodes (30854 simplex iterations) in 948.35 seconds
Thread count was 1 (of 80 available processors)

Solution count 9: -155.16 -155.16 -155.16 ... -15948

Optimal solution found (tolerance 1.00e-04)
Best objective -1.551600173069e+02, best bound -1.551600173069e+02, gap 0.0000%
